100
128
30
23
9
19
27
35
13
16
12
6
9
4
15
7
18
13
16
28
44
40
13
7
12
4
11
5
11
30
56
31
2
38
14
38
4
11
11
16
22
32
18
17
29
30
25
17
21
40
30
53
13
62
19
18
11
59
58
56
56
28
59
47
40
39
64
36
40
28
64
44
20
26
64
37
53
44
29
16
43
6
44
58
35
48
33
47
59
16
51
31
59
48
61
31
36
34
64
64
1
17